0000000000000000
0011100000000000
0011100000000000
0011100000000000
0011100000000000
0011100000000000
0011100000000000
0011100000000000
0011100000000000
0011100000000000
0011100000000000
0011100000000000
0011100000000000
0011100000000000
0011100000000000
0000000000000000
